/*********************************************
 * OPL 12.6.0.0 Data
 * Author: Adrian Rodriguez Bazaga, Pau Rodriguez Esmerats
 * Creation Date: 06/12/2017 at 23:02:53
 *********************************************/

nNurses=24;
maxConsec=2;
maxPresence=7;
maxHours=5;
minHours=1;
hours=24;
demand= [3 2 3 3 2 3 3 2 2 1 1 1 1 2 1 2 0 1 0 1 6 9 3 8  ];
